c File: flat100_3_0.col
c
c SOURCE: Joseph Culberson (joe@cs.ualberta.ca)
c DESCRIPTION: Quasi-random coloring problem
c              generated with flatness = 0
c                             probability = 0.072
c                             known coloring = 3
c                             random seed = 1026
c              Creation Date:  Thu Jun  4 18:55:16 1998
c Maximum degree = 8 Minimum degree = 1
c p edge 100 239
c cnf created by edge2cnf
p cnf 300 1117
-1 -2 0
-1 -3 0
-2 -3 0
1 2 3 0
-4 -5 0
-4 -6 0
-5 -6 0
4 5 6 0
-7 -8 0
-7 -9 0
-8 -9 0
7 8 9 0
-10 -11 0
-10 -12 0
-11 -12 0
10 11 12 0
-13 -14 0
-13 -15 0
-14 -15 0
13 14 15 0
-16 -17 0
-16 -18 0
-17 -18 0
16 17 18 0
-19 -20 0
-19 -21 0
-20 -21 0
19 20 21 0
-22 -23 0
-22 -24 0
-23 -24 0
22 23 24 0
-25 -26 0
-25 -27 0
-26 -27 0
25 26 27 0
-28 -29 0
-28 -30 0
-29 -30 0
28 29 30 0
-31 -32 0
-31 -33 0
-32 -33 0
31 32 33 0
-34 -35 0
-34 -36 0
-35 -36 0
34 35 36 0
-37 -38 0
-37 -39 0
-38 -39 0
37 38 39 0
-40 -41 0
-40 -42 0
-41 -42 0
40 41 42 0
-43 -44 0
-43 -45 0
-44 -45 0
43 44 45 0
-46 -47 0
-46 -48 0
-47 -48 0
46 47 48 0
-49 -50 0
-49 -51 0
-50 -51 0
49 50 51 0
-52 -53 0
-52 -54 0
-53 -54 0
52 53 54 0
-55 -56 0
-55 -57 0
-56 -57 0
55 56 57 0
-58 -59 0
-58 -60 0
-59 -60 0
58 59 60 0
-61 -62 0
-61 -63 0
-62 -63 0
61 62 63 0
-64 -65 0
-64 -66 0
-65 -66 0
64 65 66 0
-67 -68 0
-67 -69 0
-68 -69 0
67 68 69 0
-70 -71 0
-70 -72 0
-71 -72 0
70 71 72 0
-73 -74 0
-73 -75 0
-74 -75 0
73 74 75 0
-76 -77 0
-76 -78 0
-77 -78 0
76 77 78 0
-79 -80 0
-79 -81 0
-80 -81 0
79 80 81 0
-82 -83 0
-82 -84 0
-83 -84 0
82 83 84 0
-85 -86 0
-85 -87 0
-86 -87 0
85 86 87 0
-88 -89 0
-88 -90 0
-89 -90 0
88 89 90 0
-91 -92 0
-91 -93 0
-92 -93 0
91 92 93 0
-94 -95 0
-94 -96 0
-95 -96 0
94 95 96 0
-97 -98 0
-97 -99 0
-98 -99 0
97 98 99 0
-100 -101 0
-100 -102 0
-101 -102 0
100 101 102 0
-103 -104 0
-103 -105 0
-104 -105 0
103 104 105 0
-106 -107 0
-106 -108 0
-107 -108 0
106 107 108 0
-109 -110 0
-109 -111 0
-110 -111 0
109 110 111 0
-112 -113 0
-112 -114 0
-113 -114 0
112 113 114 0
-115 -116 0
-115 -117 0
-116 -117 0
115 116 117 0
-118 -119 0
-118 -120 0
-119 -120 0
118 119 120 0
-121 -122 0
-121 -123 0
-122 -123 0
121 122 123 0
-124 -125 0
-124 -126 0
-125 -126 0
124 125 126 0
-127 -128 0
-127 -129 0
-128 -129 0
127 128 129 0
-130 -131 0
-130 -132 0
-131 -132 0
130 131 132 0
-133 -134 0
-133 -135 0
-134 -135 0
133 134 135 0
-136 -137 0
-136 -138 0
-137 -138 0
136 137 138 0
-139 -140 0
-139 -141 0
-140 -141 0
139 140 141 0
-142 -143 0
-142 -144 0
-143 -144 0
142 143 144 0
-145 -146 0
-145 -147 0
-146 -147 0
145 146 147 0
-148 -149 0
-148 -150 0
-149 -150 0
148 149 150 0
-151 -152 0
-151 -153 0
-152 -153 0
151 152 153 0
-154 -155 0
-154 -156 0
-155 -156 0
154 155 156 0
-157 -158 0
-157 -159 0
-158 -159 0
157 158 159 0
-160 -161 0
-160 -162 0
-161 -162 0
160 161 162 0
-163 -164 0
-163 -165 0
-164 -165 0
163 164 165 0
-166 -167 0
-166 -168 0
-167 -168 0
166 167 168 0
-169 -170 0
-169 -171 0
-170 -171 0
169 170 171 0
-172 -173 0
-172 -174 0
-173 -174 0
172 173 174 0
-175 -176 0
-175 -177 0
-176 -177 0
175 176 177 0
-178 -179 0
-178 -180 0
-179 -180 0
178 179 180 0
-181 -182 0
-181 -183 0
-182 -183 0
181 182 183 0
-184 -185 0
-184 -186 0
-185 -186 0
184 185 186 0
-187 -188 0
-187 -189 0
-188 -189 0
187 188 189 0
-190 -191 0
-190 -192 0
-191 -192 0
190 191 192 0
-193 -194 0
-193 -195 0
-194 -195 0
193 194 195 0
-196 -197 0
-196 -198 0
-197 -198 0
196 197 198 0
-199 -200 0
-199 -201 0
-200 -201 0
199 200 201 0
-202 -203 0
-202 -204 0
-203 -204 0
202 203 204 0
-205 -206 0
-205 -207 0
-206 -207 0
205 206 207 0
-208 -209 0
-208 -210 0
-209 -210 0
208 209 210 0
-211 -212 0
-211 -213 0
-212 -213 0
211 212 213 0
-214 -215 0
-214 -216 0
-215 -216 0
214 215 216 0
-217 -218 0
-217 -219 0
-218 -219 0
217 218 219 0
-220 -221 0
-220 -222 0
-221 -222 0
220 221 222 0
-223 -224 0
-223 -225 0
-224 -225 0
223 224 225 0
-226 -227 0
-226 -228 0
-227 -228 0
226 227 228 0
-229 -230 0
-229 -231 0
-230 -231 0
229 230 231 0
-232 -233 0
-232 -234 0
-233 -234 0
232 233 234 0
-235 -236 0
-235 -237 0
-236 -237 0
235 236 237 0
-238 -239 0
-238 -240 0
-239 -240 0
238 239 240 0
-241 -242 0
-241 -243 0
-242 -243 0
241 242 243 0
-244 -245 0
-244 -246 0
-245 -246 0
244 245 246 0
-247 -248 0
-247 -249 0
-248 -249 0
247 248 249 0
-250 -251 0
-250 -252 0
-251 -252 0
250 251 252 0
-253 -254 0
-253 -255 0
-254 -255 0
253 254 255 0
-256 -257 0
-256 -258 0
-257 -258 0
256 257 258 0
-259 -260 0
-259 -261 0
-260 -261 0
259 260 261 0
-262 -263 0
-262 -264 0
-263 -264 0
262 263 264 0
-265 -266 0
-265 -267 0
-266 -267 0
265 266 267 0
-268 -269 0
-268 -270 0
-269 -270 0
268 269 270 0
-271 -272 0
-271 -273 0
-272 -273 0
271 272 273 0
-274 -275 0
-274 -276 0
-275 -276 0
274 275 276 0
-277 -278 0
-277 -279 0
-278 -279 0
277 278 279 0
-280 -281 0
-280 -282 0
-281 -282 0
280 281 282 0
-283 -284 0
-283 -285 0
-284 -285 0
283 284 285 0
-286 -287 0
-286 -288 0
-287 -288 0
286 287 288 0
-289 -290 0
-289 -291 0
-290 -291 0
289 290 291 0
-292 -293 0
-292 -294 0
-293 -294 0
292 293 294 0
-295 -296 0
-295 -297 0
-296 -297 0
295 296 297 0
-298 -299 0
-298 -300 0
-299 -300 0
298 299 300 0
-163 -1 0
-164 -2 0
-165 -3 0
-235 -1 0
-236 -2 0
-237 -3 0
-256 -1 0
-257 -2 0
-258 -3 0
-274 -1 0
-275 -2 0
-276 -3 0
-115 -4 0
-116 -5 0
-117 -6 0
-145 -4 0
-146 -5 0
-147 -6 0
-169 -4 0
-170 -5 0
-171 -6 0
-190 -4 0
-191 -5 0
-192 -6 0
-211 -4 0
-212 -5 0
-213 -6 0
-247 -4 0
-248 -5 0
-249 -6 0
-271 -4 0
-272 -5 0
-273 -6 0
-118 -7 0
-119 -8 0
-120 -9 0
-148 -7 0
-149 -8 0
-150 -9 0
-169 -7 0
-170 -8 0
-171 -9 0
-175 -7 0
-176 -8 0
-177 -9 0
-235 -7 0
-236 -8 0
-237 -9 0
-142 -10 0
-143 -11 0
-144 -12 0
-157 -10 0
-158 -11 0
-159 -12 0
-181 -10 0
-182 -11 0
-183 -12 0
-262 -10 0
-263 -11 0
-264 -12 0
-163 -13 0
-164 -14 0
-165 -15 0
-187 -13 0
-188 -14 0
-189 -15 0
-226 -13 0
-227 -14 0
-228 -15 0
-268 -13 0
-269 -14 0
-270 -15 0
-274 -13 0
-275 -14 0
-276 -15 0
-277 -13 0
-278 -14 0
-279 -15 0
-130 -16 0
-131 -17 0
-132 -18 0
-151 -16 0
-152 -17 0
-153 -18 0
-223 -16 0
-224 -17 0
-225 -18 0
-235 -16 0
-236 -17 0
-237 -18 0
-247 -16 0
-248 -17 0
-249 -18 0
-262 -16 0
-263 -17 0
-264 -18 0
-166 -19 0
-167 -20 0
-168 -21 0
-238 -19 0
-239 -20 0
-240 -21 0
-244 -19 0
-245 -20 0
-246 -21 0
-286 -19 0
-287 -20 0
-288 -21 0
-124 -22 0
-125 -23 0
-126 -24 0
-208 -22 0
-209 -23 0
-210 -24 0
-214 -22 0
-215 -23 0
-216 -24 0
-217 -22 0
-218 -23 0
-219 -24 0
-298 -22 0
-299 -23 0
-300 -24 0
-112 -25 0
-113 -26 0
-114 -27 0
-157 -25 0
-158 -26 0
-159 -27 0
-169 -25 0
-170 -26 0
-171 -27 0
-196 -25 0
-197 -26 0
-198 -27 0
-205 -25 0
-206 -26 0
-207 -27 0
-226 -25 0
-227 -26 0
-228 -27 0
-250 -25 0
-251 -26 0
-252 -27 0
-106 -28 0
-107 -29 0
-108 -30 0
-172 -28 0
-173 -29 0
-174 -30 0
-196 -28 0
-197 -29 0
-198 -30 0
-199 -28 0
-200 -29 0
-201 -30 0
-256 -28 0
-257 -29 0
-258 -30 0
-271 -28 0
-272 -29 0
-273 -30 0
-145 -31 0
-146 -32 0
-147 -33 0
-199 -31 0
-200 -32 0
-201 -33 0
-268 -31 0
-269 -32 0
-270 -33 0
-280 -31 0
-281 -32 0
-282 -33 0
-124 -34 0
-125 -35 0
-126 -36 0
-142 -34 0
-143 -35 0
-144 -36 0
-199 -34 0
-200 -35 0
-201 -36 0
-232 -34 0
-233 -35 0
-234 -36 0
-280 -34 0
-281 -35 0
-282 -36 0
-295 -34 0
-296 -35 0
-297 -36 0
-133 -37 0
-134 -38 0
-135 -39 0
-145 -37 0
-146 -38 0
-147 -39 0
-160 -37 0
-161 -38 0
-162 -39 0
-205 -37 0
-206 -38 0
-207 -39 0
-127 -40 0
-128 -41 0
-129 -42 0
-163 -40 0
-164 -41 0
-165 -42 0
-172 -40 0
-173 -41 0
-174 -42 0
-196 -40 0
-197 -41 0
-198 -42 0
-220 -40 0
-221 -41 0
-222 -42 0
-265 -40 0
-266 -41 0
-267 -42 0
-109 -43 0
-110 -44 0
-111 -45 0
-193 -43 0
-194 -44 0
-195 -45 0
-151 -46 0
-152 -47 0
-153 -48 0
-181 -46 0
-182 -47 0
-183 -48 0
-193 -46 0
-194 -47 0
-195 -48 0
-232 -46 0
-233 -47 0
-234 -48 0
-274 -46 0
-275 -47 0
-276 -48 0
-277 -46 0
-278 -47 0
-279 -48 0
-295 -46 0
-296 -47 0
-297 -48 0
-112 -49 0
-113 -50 0
-114 -51 0
-157 -49 0
-158 -50 0
-159 -51 0
-196 -49 0
-197 -50 0
-198 -51 0
-232 -49 0
-233 -50 0
-234 -51 0
-157 -52 0
-158 -53 0
-159 -54 0
-295 -52 0
-296 -53 0
-297 -54 0
-127 -55 0
-128 -56 0
-129 -57 0
-133 -55 0
-134 -56 0
-135 -57 0
-136 -55 0
-137 -56 0
-138 -57 0
-178 -55 0
-179 -56 0
-180 -57 0
-244 -55 0
-245 -56 0
-246 -57 0
-247 -55 0
-248 -56 0
-249 -57 0
-259 -55 0
-260 -56 0
-261 -57 0
-283 -55 0
-284 -56 0
-285 -57 0
-142 -58 0
-143 -59 0
-144 -60 0
-223 -58 0
-224 -59 0
-225 -60 0
-226 -58 0
-227 -59 0
-228 -60 0
-115 -61 0
-116 -62 0
-117 -63 0
-190 -61 0
-191 -62 0
-192 -63 0
-193 -61 0
-194 -62 0
-195 -63 0
-211 -61 0
-212 -62 0
-213 -63 0
-235 -61 0
-236 -62 0
-237 -63 0
-259 -61 0
-260 -62 0
-261 -63 0
-115 -64 0
-116 -65 0
-117 -66 0
-184 -64 0
-185 -65 0
-186 -66 0
-220 -64 0
-221 -65 0
-222 -66 0
-226 -64 0
-227 -65 0
-228 -66 0
-109 -67 0
-110 -68 0
-111 -69 0
-121 -67 0
-122 -68 0
-123 -69 0
-124 -67 0
-125 -68 0
-126 -69 0
-160 -67 0
-161 -68 0
-162 -69 0
-229 -67 0
-230 -68 0
-231 -69 0
-244 -67 0
-245 -68 0
-246 -69 0
-256 -67 0
-257 -68 0
-258 -69 0
-259 -67 0
-260 -68 0
-261 -69 0
-148 -70 0
-149 -71 0
-150 -72 0
-124 -73 0
-125 -74 0
-126 -75 0
-256 -73 0
-257 -74 0
-258 -75 0
-106 -76 0
-107 -77 0
-108 -78 0
-142 -76 0
-143 -77 0
-144 -78 0
-166 -76 0
-167 -77 0
-168 -78 0
-217 -76 0
-218 -77 0
-219 -78 0
-229 -76 0
-230 -77 0
-231 -78 0
-238 -76 0
-239 -77 0
-240 -78 0
-298 -76 0
-299 -77 0
-300 -78 0
-103 -79 0
-104 -80 0
-105 -81 0
-139 -79 0
-140 -80 0
-141 -81 0
-175 -79 0
-176 -80 0
-177 -81 0
-229 -79 0
-230 -80 0
-231 -81 0
-232 -79 0
-233 -80 0
-234 -81 0
-298 -79 0
-299 -80 0
-300 -81 0
-139 -82 0
-140 -83 0
-141 -84 0
-241 -82 0
-242 -83 0
-243 -84 0
-151 -85 0
-152 -86 0
-153 -87 0
-205 -85 0
-206 -86 0
-207 -87 0
-250 -85 0
-251 -86 0
-252 -87 0
-268 -85 0
-269 -86 0
-270 -87 0
-289 -85 0
-290 -86 0
-291 -87 0
-109 -88 0
-110 -89 0
-111 -90 0
-121 -88 0
-122 -89 0
-123 -90 0
-217 -88 0
-218 -89 0
-219 -90 0
-223 -88 0
-224 -89 0
-225 -90 0
-265 -88 0
-266 -89 0
-267 -90 0
-271 -88 0
-272 -89 0
-273 -90 0
-115 -91 0
-116 -92 0
-117 -93 0
-175 -94 0
-176 -95 0
-177 -96 0
-199 -94 0
-200 -95 0
-201 -96 0
-217 -94 0
-218 -95 0
-219 -96 0
-238 -94 0
-239 -95 0
-240 -96 0
-274 -94 0
-275 -95 0
-276 -96 0
-193 -97 0
-194 -98 0
-195 -99 0
-139 -100 0
-140 -101 0
-141 -102 0
-151 -100 0
-152 -101 0
-153 -102 0
-181 -100 0
-182 -101 0
-183 -102 0
-208 -100 0
-209 -101 0
-210 -102 0
-220 -100 0
-221 -101 0
-222 -102 0
-289 -100 0
-290 -101 0
-291 -102 0
-292 -100 0
-293 -101 0
-294 -102 0
-238 -103 0
-239 -104 0
-240 -105 0
-262 -103 0
-263 -104 0
-264 -105 0
-286 -103 0
-287 -104 0
-288 -105 0
-205 -106 0
-206 -107 0
-207 -108 0
-217 -106 0
-218 -107 0
-219 -108 0
-220 -106 0
-221 -107 0
-222 -108 0
-214 -109 0
-215 -110 0
-216 -111 0
-241 -109 0
-242 -110 0
-243 -111 0
-259 -115 0
-260 -116 0
-261 -117 0
-247 -118 0
-248 -119 0
-249 -120 0
-283 -118 0
-284 -119 0
-285 -120 0
-295 -118 0
-296 -119 0
-297 -120 0
-298 -118 0
-299 -119 0
-300 -120 0
-217 -121 0
-218 -122 0
-219 -123 0
-235 -121 0
-236 -122 0
-237 -123 0
-268 -121 0
-269 -122 0
-270 -123 0
-259 -124 0
-260 -125 0
-261 -126 0
-283 -124 0
-284 -125 0
-285 -126 0
-256 -127 0
-257 -128 0
-258 -129 0
-244 -130 0
-245 -131 0
-246 -132 0
-256 -130 0
-257 -131 0
-258 -132 0
-277 -130 0
-278 -131 0
-279 -132 0
-295 -130 0
-296 -131 0
-297 -132 0
-205 -133 0
-206 -134 0
-207 -135 0
-298 -133 0
-299 -134 0
-300 -135 0
-208 -139 0
-209 -140 0
-210 -141 0
-244 -139 0
-245 -140 0
-246 -141 0
-265 -139 0
-266 -140 0
-267 -141 0
-211 -142 0
-212 -143 0
-213 -144 0
-235 -142 0
-236 -143 0
-237 -144 0
-238 -142 0
-239 -143 0
-240 -144 0
-280 -142 0
-281 -143 0
-282 -144 0
-235 -145 0
-236 -146 0
-237 -147 0
-241 -148 0
-242 -149 0
-243 -150 0
-253 -148 0
-254 -149 0
-255 -150 0
-220 -151 0
-221 -152 0
-222 -153 0
-226 -151 0
-227 -152 0
-228 -153 0
-259 -154 0
-260 -155 0
-261 -156 0
-211 -157 0
-212 -158 0
-213 -159 0
-244 -157 0
-245 -158 0
-246 -159 0
-247 -157 0
-248 -158 0
-249 -159 0
-232 -160 0
-233 -161 0
-234 -162 0
-259 -160 0
-260 -161 0
-261 -162 0
-232 -163 0
-233 -164 0
-234 -165 0
-241 -163 0
-242 -164 0
-243 -165 0
-223 -166 0
-224 -167 0
-225 -168 0
-235 -166 0
-236 -167 0
-237 -168 0
-208 -169 0
-209 -170 0
-210 -171 0
-232 -169 0
-233 -170 0
-234 -171 0
-295 -172 0
-296 -173 0
-297 -174 0
-232 -175 0
-233 -176 0
-234 -177 0
-268 -175 0
-269 -176 0
-270 -177 0
-217 -178 0
-218 -179 0
-219 -180 0
-265 -178 0
-266 -179 0
-267 -180 0
-298 -178 0
-299 -179 0
-300 -180 0
-253 -181 0
-254 -182 0
-255 -183 0
-277 -181 0
-278 -182 0
-279 -183 0
-295 -181 0
-296 -182 0
-297 -183 0
-298 -181 0
-299 -182 0
-300 -183 0
-217 -184 0
-218 -185 0
-219 -186 0
-277 -184 0
-278 -185 0
-279 -186 0
-292 -184 0
-293 -185 0
-294 -186 0
-202 -187 0
-203 -188 0
-204 -189 0
-205 -187 0
-206 -188 0
-207 -189 0
-241 -187 0
-242 -188 0
-243 -189 0
-205 -190 0
-206 -191 0
-207 -192 0
-268 -190 0
-269 -191 0
-270 -192 0
-277 -190 0
-278 -191 0
-279 -192 0
-271 -193 0
-272 -194 0
-273 -195 0
-280 -193 0
-281 -194 0
-282 -195 0
-289 -193 0
-290 -194 0
-291 -195 0
-292 -193 0
-293 -194 0
-294 -195 0
-202 -196 0
-203 -197 0
-204 -198 0
-220 -196 0
-221 -197 0
-222 -198 0
-265 -196 0
-266 -197 0
-267 -198 0
-280 -196 0
-281 -197 0
-282 -198 0
-256 -199 0
-257 -200 0
-258 -201 0
-262 -199 0
-263 -200 0
-264 -201 0
